100 4950
1 2 1
1 3 2
1 4 4
1 5 5
1 6 4
1 7 3
1 8 5
1 9 2
1 10 5
1 11 2
1 12 4
1 13 4
1 14 1
1 15 4
1 16 3
1 17 1
1 18 4
1 19 5
1 20 1
1 21 5
1 22 2
1 23 1
1 24 1
1 25 2
1 26 5
1 27 1
1 28 2
1 29 2
1 30 1
1 31 5
1 32 5
1 33 5
1 34 2
1 35 3
1 36 4
1 37 5
1 38 5
1 39 4
1 40 1
1 41 4
1 42 3
1 43 4
1 44 4
1 45 5
1 46 1
1 47 4
1 48 1
1 49 1
1 50 1
1 51 3
1 52 2
1 53 4
1 54 4
1 55 3
1 56 1
1 57 1
1 58 3
1 59 3
1 60 2
1 61 2
1 62 3
1 63 4
1 64 2
1 65 2
1 66 3
1 67 4
1 68 3
1 69 4
1 70 5
1 71 4
1 72 5
1 73 1
1 74 5
1 75 3
1 76 2
1 77 2
1 78 1
1 79 1
1 80 4
1 81 3
1 82 1
1 83 2
1 84 5
1 85 1
1 86 3
1 87 3
1 88 5
1 89 5
1 90 2
1 91 5
1 92 2
1 93 4
1 94 4
1 95 5
1 96 2
1 97 5
1 98 3
1 99 2
1 100 2
2 3 1
2 4 1
2 5 3
2 6 2
2 7 1
2 8 2
2 9 4
2 10 2
2 11 3
2 12 2
2 13 2
2 14 1
2 15 3
2 16 4
2 17 3
2 18 3
2 19 2
2 20 1
2 21 3
2 22 5
2 23 3
2 24 1
2 25 4
2 26 2
2 27 2
2 28 4
2 29 3
2 30 2
2 31 4
2 32 5
2 33 2
2 34 3
2 35 3
2 36 2
2 37 2
2 38 3
2 39 4
2 40 4
2 41 2
2 42 3
2 43 4
2 44 5
2 45 5
2 46 1
2 47 3
2 48 4
2 49 5
2 50 2
2 51 5
2 52 1
2 53 4
2 54 2
2 55 5
2 56 1
2 57 5
2 58 5
2 59 3
2 60 4
2 61 4
2 62 3
2 63 4
2 64 3
2 65 2
2 66 1
2 67 2
2 68 5
2 69 4
2 70 3
2 71 1
2 72 1
2 73 4
2 74 3
2 75 3
2 76 1
2 77 4
2 78 4
2 79 4
2 80 4
2 81 1
2 82 4
2 83 5
2 84 3
2 85 1
2 86 3
2 87 5
2 88 4
2 89 2
2 90 2
2 91 4
2 92 4
2 93 3
2 94 1
2 95 1
2 96 2
2 97 2
2 98 5
2 99 4
2 100 3
3 4 1
3 5 5
3 6 2
3 7 2
3 8 3
3 9 2
3 10 3
3 11 3
3 12 2
3 13 4
3 14 2
3 15 4
3 16 4
3 17 2
3 18 5
3 19 3
3 20 3
3 21 5
3 22 2
3 23 2
3 24 3
3 25 5
3 26 3
3 27 4
3 28 1
3 29 1
3 30 2
3 31 3
3 32 5
3 33 2
3 34 3
3 35 2
3 36 5
3 37 1
3 38 5
3 39 1
3 40 1
3 41 4
3 42 3
3 43 3
3 44 2
3 45 5
3 46 2
3 47 4
3 48 5
3 49 5
3 50 2
3 51 5
3 52 2
3 53 3
3 54 3
3 55 5
3 56 4
3 57 4
3 58 4
3 59 5
3 60 4
3 61 1
3 62 4
3 63 2
3 64 3
3 65 2
3 66 2
3 67 3
3 68 1
3 69 5
3 70 1
3 71 5
3 72 1
3 73 4
3 74 2
3 75 5
3 76 2
3 77 2
3 78 1
3 79 4
3 80 4
3 81 1
3 82 1
3 83 4
3 84 3
3 85 4
3 86 5
3 87 2
3 88 3
3 89 4
3 90 2
3 91 4
3 92 3
3 93 5
3 94 5
3 95 4
3 96 4
3 97 5
3 98 4
3 99 2
3 100 5
4 5 5
4 6 1
4 7 5
4 8 2
4 9 3
4 10 3
4 11 3
4 12 5
4 13 4
4 14 5
4 15 4
4 16 2
4 17 5
4 18 5
4 19 1
4 20 2
4 21 2
4 22 1
4 23 5
4 24 3
4 25 3
4 26 1
4 27 4
4 28 2
4 29 2
4 30 1
4 31 3
4 32 1
4 33 5
4 34 5
4 35 2
4 36 2
4 37 2
4 38 4
4 39 2
4 40 1
4 41 4
4 42 3
4 43 3
4 44 3
4 45 4
4 46 2
4 47 5
4 48 2
4 49 1
4 50 3
4 51 2
4 52 4
4 53 5
4 54 1
4 55 2
4 56 5
4 57 2
4 58 4
4 59 3
4 60 4
4 61 3
4 62 3
4 63 4
4 64 2
4 65 3
4 66 3
4 67 5
4 68 2
4 69 3
4 70 5
4 71 2
4 72 1
4 73 1
4 74 5
4 75 4
4 76 4
4 77 2
4 78 5
4 79 2
4 80 3
4 81 3
4 82 1
4 83 4
4 84 3
4 85 1
4 86 5
4 87 1
4 88 1
4 89 3
4 90 2
4 91 1
4 92 2
4 93 4
4 94 4
4 95 2
4 96 4
4 97 2
4 98 5
4 99 2
4 100 3
5 6 2
5 7 3
5 8 1
5 9 3
5 10 5
5 11 5
5 12 5
5 13 5
5 14 3
5 15 1
5 16 3
5 17 1
5 18 3
5 19 3
5 20 4
5 21 4
5 22 2
5 23 2
5 24 3
5 25 2
5 26 1
5 27 4
5 28 4
5 29 5
5 30 3
5 31 2
5 32 3
5 33 4
5 34 1
5 35 3
5 36 1
5 37 5
5 38 3
5 39 2
5 40 2
5 41 5
5 42 2
5 43 4
5 44 1
5 45 3
5 46 4
5 47 4
5 48 5
5 49 1
5 50 3
5 51 3
5 52 3
5 53 1
5 54 4
5 55 5
5 56 2
5 57 4
5 58 2
5 59 1
5 60 4
5 61 3
5 62 1
5 63 1
5 64 4
5 65 4
5 66 4
5 67 1
5 68 3
5 69 2
5 70 4
5 71 4
5 72 5
5 73 5
5 74 5
5 75 1
5 76 4
5 77 5
5 78 3
5 79 2
5 80 5
5 81 2
5 82 2
5 83 5
5 84 5
5 85 2
5 86 5
5 87 2
5 88 5
5 89 4
5 90 5
5 91 1
5 92 2
5 93 2
5 94 5
5 95 4
5 96 4
5 97 5
5 98 4
5 99 3
5 100 2
6 7 1
6 8 1
6 9 2
6 10 5
6 11 1
6 12 3
6 13 3
6 14 3
6 15 3
6 16 3
6 17 1
6 18 5
6 19 4
6 20 5
6 21 1
6 22 3
6 23 5
6 24 5
6 25 4
6 26 4
6 27 1
6 28 2
6 29 2
6 30 4
6 31 5
6 32 1
6 33 2
6 34 3
6 35 2
6 36 3
6 37 2
6 38 2
6 39 3
6 40 2
6 41 2
6 42 5
6 43 2
6 44 4
6 45 3
6 46 3
6 47 4
6 48 4
6 49 2
6 50 5
6 51 1
6 52 1
6 53 1
6 54 1
6 55 5
6 56 5
6 57 1
6 58 1
6 59 1
6 60 2
6 61 3
6 62 2
6 63 1
6 64 5
6 65 5
6 66 5
6 67 5
6 68 3
6 69 5
6 70 3
6 71 3
6 72 3
6 73 4
6 74 2
6 75 4
6 76 1
6 77 1
6 78 5
6 79 3
6 80 5
6 81 3
6 82 5
6 83 1
6 84 5
6 85 5
6 86 3
6 87 3
6 88 5
6 89 1
6 90 2
6 91 1
6 92 1
6 93 4
6 94 1
6 95 3
6 96 3
6 97 5
6 98 1
6 99 2
6 100 1
7 8 4
7 9 4
7 10 2
7 11 1
7 12 2
7 13 5
7 14 2
7 15 3
7 16 4
7 17 3
7 18 1
7 19 4
7 20 3
7 21 5
7 22 1
7 23 5
7 24 1
7 25 2
7 26 2
7 27 1
7 28 4
7 29 1
7 30 4
7 31 4
7 32 5
7 33 5
7 34 4
7 35 3
7 36 2
7 37 2
7 38 1
7 39 4
7 40 3
7 41 1
7 42 2
7 43 4
7 44 1
7 45 1
7 46 3
7 47 5
7 48 3
7 49 5
7 50 2
7 51 3
7 52 3
7 53 3
7 54 3
7 55 3
7 56 3
7 57 2
7 58 5
7 59 2
7 60 4
7 61 3
7 62 3
7 63 4
7 64 2
7 65 2
7 66 3
7 67 2
7 68 4
7 69 5
7 70 4
7 71 3
7 72 1
7 73 5
7 74 2
7 75 4
7 76 1
7 77 2
7 78 2
7 79 1
7 80 2
7 81 5
7 82 1
7 83 2
7 84 2
7 85 4
7 86 4
7 87 1
7 88 4
7 89 1
7 90 1
7 91 4
7 92 2
7 93 4
7 94 2
7 95 1
7 96 4
7 97 4
7 98 3
7 99 1
7 100 4
8 9 2
8 10 5
8 11 1
8 12 1
8 13 2
8 14 5
8 15 4
8 16 3
8 17 5
8 18 5
8 19 4
8 20 3
8 21 1
8 22 2
8 23 5
8 24 2
8 25 2
8 26 3
8 27 3
8 28 4
8 29 1
8 30 3
8 31 4
8 32 2
8 33 4
8 34 2
8 35 4
8 36 3
8 37 2
8 38 3
8 39 3
8 40 3
8 41 2
8 42 3
8 43 3
8 44 5
8 45 5
8 46 5
8 47 1
8 48 3
8 49 4
8 50 1
8 51 2
8 52 3
8 53 4
8 54 5
8 55 4
8 56 2
8 57 3
8 58 5
8 59 5
8 60 5
8 61 1
8 62 1
8 63 3
8 64 3
8 65 5
8 66 3
8 67 1
8 68 2
8 69 3
8 70 3
8 71 4
8 72 5
8 73 3
8 74 5
8 75 1
8 76 2
8 77 3
8 78 1
8 79 4
8 80 2
8 81 2
8 82 2
8 83 3
8 84 3
8 85 1
8 86 3
8 87 1
8 88 4
8 89 4
8 90 4
8 91 4
8 92 4
8 93 2
8 94 3
8 95 1
8 96 1
8 97 2
8 98 1
8 99 5
8 100 5
9 10 2
9 11 5
9 12 5
9 13 2
9 14 2
9 15 1
9 16 3
9 17 2
9 18 3
9 19 5
9 20 3
9 21 3
9 22 1
9 23 2
9 24 1
9 25 4
9 26 4
9 27 4
9 28 1
9 29 2
9 30 1
9 31 4
9 32 3
9 33 4
9 34 5
9 35 1
9 36 2
9 37 4
9 38 2
9 39 5
9 40 1
9 41 2
9 42 4
9 43 2
9 44 3
9 45 5
9 46 4
9 47 2
9 48 3
9 49 3
9 50 3
9 51 4
9 52 3
9 53 1
9 54 1
9 55 1
9 56 5
9 57 2
9 58 2
9 59 5
9 60 5
9 61 4
9 62 2
9 63 5
9 64 2
9 65 2
9 66 5
9 67 2
9 68 2
9 69 4
9 70 3
9 71 1
9 72 2
9 73 3
9 74 2
9 75 3
9 76 1
9 77 1
9 78 3
9 79 5
9 80 4
9 81 2
9 82 5
9 83 2
9 84 3
9 85 1
9 86 3
9 87 1
9 88 5
9 89 4
9 90 2
9 91 4
9 92 4
9 93 1
9 94 2
9 95 5
9 96 4
9 97 4
9 98 4
9 99 1
9 100 1
10 11 3
10 12 3
10 13 5
10 14 2
10 15 1
10 16 4
10 17 4
10 18 2
10 19 5
10 20 2
10 21 4
10 22 5
10 23 1
10 24 1
10 25 5
10 26 3
10 27 1
10 28 4
10 29 4
10 30 2
10 31 2
10 32 5
10 33 3
10 34 4
10 35 1
10 36 4
10 37 2
10 38 3
10 39 3
10 40 2
10 41 4
10 42 2
10 43 2
10 44 5
10 45 4
10 46 4
10 47 2
10 48 4
10 49 5
10 50 1
10 51 3
10 52 5
10 53 5
10 54 2
10 55 2
10 56 1
10 57 3
10 58 3
10 59 1
10 60 5
10 61 3
10 62 2
10 63 5
10 64 3
10 65 1
10 66 3
10 67 5
10 68 3
10 69 2
10 70 3
10 71 5
10 72 3
10 73 3
10 74 4
10 75 5
10 76 1
10 77 1
10 78 3
10 79 3
10 80 1
10 81 4
10 82 5
10 83 5
10 84 1
10 85 2
10 86 4
10 87 4
10 88 5
10 89 2
10 90 1
10 91 3
10 92 1
10 93 4
10 94 4
10 95 2
10 96 3
10 97 3
10 98 4
10 99 1
10 100 1
11 12 3
11 13 3
11 14 3
11 15 5
11 16 3
11 17 5
11 18 1
11 19 1
11 20 1
11 21 5
11 22 5
11 23 1
11 24 1
11 25 2
11 26 5
11 27 2
11 28 4
11 29 5
11 30 3
11 31 5
11 32 3
11 33 1
11 34 1
11 35 3
11 36 2
11 37 5
11 38 2
11 39 2
11 40 1
11 41 1
11 42 5
11 43 3
11 44 2
11 45 5
11 46 2
11 47 5
11 48 2
11 49 5
11 50 1
11 51 4
11 52 5
11 53 5
11 54 5
11 55 4
11 56 1
11 57 5
11 58 2
11 59 4
11 60 1
11 61 4
11 62 4
11 63 4
11 64 1
11 65 4
11 66 3
11 67 2
11 68 3
11 69 2
11 70 1
11 71 3
11 72 2
11 73 5
11 74 4
11 75 2
11 76 2
11 77 5
11 78 5
11 79 3
11 80 2
11 81 3
11 82 5
11 83 4
11 84 2
11 85 2
11 86 5
11 87 2
11 88 3
11 89 5
11 90 3
11 91 4
11 92 5
11 93 3
11 94 4
11 95 3
11 96 3
11 97 1
11 98 5
11 99 2
11 100 5
12 13 5
12 14 1
12 15 4
12 16 2
12 17 1
12 18 3
12 19 3
12 20 3
12 21 3
12 22 4
12 23 2
12 24 1
12 25 5
12 26 3
12 27 3
12 28 4
12 29 1
12 30 3
12 31 2
12 32 5
12 33 4
12 34 4
12 35 5
12 36 2
12 37 3
12 38 4
12 39 5
12 40 2
12 41 4
12 42 2
12 43 2
12 44 3
12 45 3
12 46 2
12 47 3
12 48 5
12 49 3
12 50 3
12 51 2
12 52 2
12 53 4
12 54 1
12 55 4
12 56 5
12 57 4
12 58 5
12 59 4
12 60 3
12 61 2
12 62 5
12 63 4
12 64 5
12 65 5
12 66 1
12 67 4
12 68 5
12 69 1
12 70 5
12 71 2
12 72 1
12 73 3
12 74 3
12 75 1
12 76 3
12 77 1
12 78 5
12 79 2
12 80 3
12 81 5
12 82 3
12 83 5
12 84 5
12 85 4
12 86 4
12 87 4
12 88 2
12 89 1
12 90 1
12 91 3
12 92 5
12 93 1
12 94 5
12 95 2
12 96 4
12 97 5
12 98 3
12 99 5
12 100 3
13 14 3
13 15 1
13 16 1
13 17 3
13 18 2
13 19 1
13 20 1
13 21 4
13 22 5
13 23 3
13 24 1
13 25 5
13 26 2
13 27 2
13 28 2
13 29 3
13 30 2
13 31 2
13 32 2
13 33 5
13 34 5
13 35 3
13 36 3
13 37 3
13 38 1
13 39 1
13 40 1
13 41 4
13 42 1
13 43 2
13 44 5
13 45 2
13 46 1
13 47 2
13 48 2
13 49 1
13 50 2
13 51 5
13 52 5
13 53 2
13 54 2
13 55 4
13 56 3
13 57 5
13 58 4
13 59 1
13 60 2
13 61 4
13 62 2
13 63 3
13 64 5
13 65 1
13 66 3
13 67 2
13 68 1
13 69 5
13 70 1
13 71 2
13 72 2
13 73 1
13 74 4
13 75 5
13 76 2
13 77 3
13 78 3
13 79 2
13 80 5
13 81 5
13 82 1
13 83 2
13 84 4
13 85 5
13 86 3
13 87 4
13 88 3
13 89 1
13 90 3
13 91 2
13 92 1
13 93 5
13 94 4
13 95 1
13 96 4
13 97 3
13 98 4
13 99 4
13 100 1
14 15 3
14 16 3
14 17 5
14 18 5
14 19 1
14 20 5
14 21 2
14 22 3
14 23 5
14 24 1
14 25 1
14 26 3
14 27 4
14 28 1
14 29 2
14 30 4
14 31 3
14 32 2
14 33 2
14 34 5
14 35 1
14 36 1
14 37 5
14 38 5
14 39 1
14 40 5
14 41 3
14 42 1
14 43 5
14 44 5
14 45 5
14 46 5
14 47 1
14 48 5
14 49 3
14 50 4
14 51 1
14 52 4
14 53 3
14 54 5
14 55 1
14 56 3
14 57 2
14 58 3
14 59 1
14 60 5
14 61 4
14 62 4
14 63 2
14 64 2
14 65 1
14 66 4
14 67 5
14 68 4
14 69 5
14 70 2
14 71 4
14 72 5
14 73 5
14 74 3
14 75 4
14 76 3
14 77 5
14 78 3
14 79 2
14 80 4
14 81 1
14 82 5
14 83 3
14 84 1
14 85 2
14 86 3
14 87 1
14 88 4
14 89 1
14 90 5
14 91 2
14 92 1
14 93 2
14 94 4
14 95 5
14 96 5
14 97 3
14 98 2
14 99 5
14 100 1
15 16 2
15 17 1
15 18 3
15 19 4
15 20 3
15 21 4
15 22 1
15 23 2
15 24 3
15 25 1
15 26 1
15 27 4
15 28 4
15 29 1
15 30 5
15 31 3
15 32 4
15 33 1
15 34 4
15 35 2
15 36 4
15 37 1
15 38 3
15 39 3
15 40 4
15 41 5
15 42 5
15 43 4
15 44 4
15 45 4
15 46 1
15 47 5
15 48 3
15 49 4
15 50 4
15 51 3
15 52 3
15 53 1
15 54 2
15 55 1
15 56 5
15 57 2
15 58 2
15 59 4
15 60 3
15 61 3
15 62 4
15 63 2
15 64 2
15 65 3
15 66 2
15 67 1
15 68 4
15 69 5
15 70 1
15 71 4
15 72 4
15 73 4
15 74 5
15 75 5
15 76 1
15 77 2
15 78 5
15 79 3
15 80 3
15 81 2
15 82 1
15 83 3
15 84 2
15 85 4
15 86 2
15 87 2
15 88 2
15 89 3
15 90 4
15 91 1
15 92 1
15 93 5
15 94 1
15 95 2
15 96 1
15 97 4
15 98 1
15 99 4
15 100 1
16 17 4
16 18 3
16 19 2
16 20 4
16 21 1
16 22 3
16 23 5
16 24 3
16 25 2
16 26 1
16 27 2
16 28 5
16 29 2
16 30 4
16 31 3
16 32 5
16 33 2
16 34 4
16 35 4
16 36 4
16 37 3
16 38 3
16 39 4
16 40 5
16 41 2
16 42 5
16 43 3
16 44 1
16 45 1
16 46 5
16 47 4
16 48 3
16 49 1
16 50 2
16 51 3
16 52 2
16 53 4
16 54 1
16 55 3
16 56 4
16 57 2
16 58 5
16 59 1
16 60 4
16 61 3
16 62 3
16 63 1
16 64 4
16 65 5
16 66 4
16 67 1
16 68 5
16 69 4
16 70 4
16 71 5
16 72 2
16 73 5
16 74 5
16 75 2
16 76 4
16 77 5
16 78 3
16 79 5
16 80 1
16 81 3
16 82 1
16 83 5
16 84 4
16 85 1
16 86 2
16 87 2
16 88 5
16 89 1
16 90 1
16 91 4
16 92 5
16 93 2
16 94 1
16 95 3
16 96 5
16 97 1
16 98 2
16 99 5
16 100 2
17 18 5
17 19 4
17 20 3
17 21 2
17 22 1
17 23 1
17 24 5
17 25 2
17 26 5
17 27 2
17 28 3
17 29 2
17 30 1
17 31 4
17 32 4
17 33 3
17 34 4
17 35 3
17 36 3
17 37 2
17 38 4
17 39 3
17 40 2
17 41 2
17 42 1
17 43 5
17 44 5
17 45 2
17 46 3
17 47 4
17 48 3
17 49 2
17 50 5
17 51 3
17 52 5
17 53 1
17 54 4
17 55 3
17 56 3
17 57 2
17 58 1
17 59 2
17 60 4
17 61 4
17 62 4
17 63 2
17 64 5
17 65 4
17 66 1
17 67 3
17 68 4
17 69 3
17 70 4
17 71 1
17 72 4
17 73 5
17 74 4
17 75 1
17 76 2
17 77 4
17 78 3
17 79 2
17 80 5
17 81 5
17 82 3
17 83 5
17 84 2
17 85 4
17 86 3
17 87 4
17 88 3
17 89 3
17 90 3
17 91 3
17 92 2
17 93 4
17 94 4
17 95 4
17 96 3
17 97 4
17 98 5
17 99 3
17 100 3
18 19 3
18 20 4
18 21 5
18 22 4
18 23 5
18 24 5
18 25 1
18 26 5
18 27 4
18 28 4
18 29 1
18 30 4
18 31 3
18 32 4
18 33 3
18 34 4
18 35 5
18 36 1
18 37 4
18 38 1
18 39 5
18 40 3
18 41 1
18 42 5
18 43 5
18 44 5
18 45 1
18 46 2
18 47 4
18 48 2
18 49 1
18 50 1
18 51 4
18 52 3
18 53 4
18 54 4
18 55 3
18 56 5
18 57 4
18 58 2
18 59 3
18 60 4
18 61 4
18 62 5
18 63 3
18 64 2
18 65 2
18 66 5
18 67 1
18 68 5
18 69 4
18 70 4
18 71 4
18 72 3
18 73 1
18 74 5
18 75 1
18 76 4
18 77 4
18 78 4
18 79 5
18 80 3
18 81 4
18 82 5
18 83 2
18 84 2
18 85 1
18 86 5
18 87 2
18 88 5
18 89 4
18 90 2
18 91 4
18 92 4
18 93 5
18 94 2
18 95 1
18 96 3
18 97 1
18 98 5
18 99 1
18 100 3
19 20 2
19 21 4
19 22 2
19 23 1
19 24 2
19 25 1
19 26 1
19 27 4
19 28 2
19 29 4
19 30 2
19 31 1
19 32 3
19 33 3
19 34 3
19 35 5
19 36 1
19 37 5
19 38 3
19 39 4
19 40 1
19 41 3
19 42 5
19 43 1
19 44 4
19 45 3
19 46 4
19 47 5
19 48 5
19 49 5
19 50 3
19 51 2
19 52 3
19 53 5
19 54 5
19 55 1
19 56 3
19 57 4
19 58 1
19 59 2
19 60 2
19 61 1
19 62 5
19 63 2
19 64 2
19 65 1
19 66 5
19 67 1
19 68 4
19 69 2
19 70 2
19 71 5
19 72 4
19 73 1
19 74 2
19 75 5
19 76 2
19 77 2
19 78 2
19 79 5
19 80 4
19 81 3
19 82 3
19 83 2
19 84 1
19 85 2
19 86 4
19 87 5
19 88 4
19 89 5
19 90 1
19 91 1
19 92 2
19 93 5
19 94 3
19 95 5
19 96 4
19 97 4
19 98 4
19 99 4
19 100 5
20 21 5
20 22 3
20 23 2
20 24 4
20 25 4
20 26 2
20 27 5
20 28 5
20 29 5
20 30 5
20 31 4
20 32 2
20 33 3
20 34 3
20 35 4
20 36 4
20 37 2
20 38 4
20 39 3
20 40 2
20 41 1
20 42 5
20 43 4
20 44 1
20 45 2
20 46 4
20 47 4
20 48 5
20 49 1
20 50 4
20 51 1
20 52 3
20 53 1
20 54 5
20 55 2
20 56 1
20 57 1
20 58 2
20 59 1
20 60 5
20 61 4
20 62 5
20 63 3
20 64 2
20 65 5
20 66 4
20 67 4
20 68 5
20 69 4
20 70 4
20 71 1
20 72 1
20 73 1
20 74 1
20 75 4
20 76 3
20 77 4
20 78 2
20 79 2
20 80 5
20 81 5
20 82 3
20 83 1
20 84 5
20 85 1
20 86 2
20 87 2
20 88 1
20 89 1
20 90 2
20 91 1
20 92 4
20 93 2
20 94 1
20 95 2
20 96 2
20 97 4
20 98 2
20 99 5
20 100 5
21 22 3
21 23 5
21 24 1
21 25 4
21 26 2
21 27 4
21 28 1
21 29 1
21 30 5
21 31 1
21 32 1
21 33 1
21 34 4
21 35 3
21 36 4
21 37 5
21 38 2
21 39 5
21 40 1
21 41 2
21 42 1
21 43 1
21 44 3
21 45 4
21 46 2
21 47 1
21 48 3
21 49 2
21 50 4
21 51 3
21 52 2
21 53 4
21 54 1
21 55 2
21 56 1
21 57 5
21 58 5
21 59 5
21 60 2
21 61 1
21 62 3
21 63 2
21 64 2
21 65 3
21 66 5
21 67 4
21 68 2
21 69 3
21 70 2
21 71 1
21 72 3
21 73 5
21 74 2
21 75 5
21 76 2
21 77 5
21 78 5
21 79 5
21 80 2
21 81 5
21 82 3
21 83 3
21 84 2
21 85 2
21 86 5
21 87 2
21 88 2
21 89 3
21 90 3
21 91 5
21 92 5
21 93 3
21 94 5
21 95 3
21 96 1
21 97 5
21 98 1
21 99 4
21 100 4
22 23 4
22 24 3
22 25 2
22 26 3
22 27 2
22 28 3
22 29 5
22 30 1
22 31 2
22 32 2
22 33 5
22 34 4
22 35 3
22 36 1
22 37 4
22 38 3
22 39 1
22 40 1
22 41 4
22 42 1
22 43 1
22 44 5
22 45 5
22 46 4
22 47 3
22 48 2
22 49 3
22 50 1
22 51 2
22 52 1
22 53 1
22 54 3
22 55 1
22 56 2
22 57 4
22 58 2
22 59 2
22 60 1
22 61 4
22 62 1
22 63 4
22 64 3
22 65 1
22 66 4
22 67 5
22 68 4
22 69 5
22 70 5
22 71 5
22 72 3
22 73 2
22 74 3
22 75 3
22 76 5
22 77 3
22 78 1
22 79 1
22 80 1
22 81 5
22 82 1
22 83 3
22 84 1
22 85 4
22 86 4
22 87 2
22 88 3
22 89 5
22 90 2
22 91 3
22 92 5
22 93 3
22 94 2
22 95 2
22 96 2
22 97 1
22 98 3
22 99 2
22 100 1
23 24 2
23 25 2
23 26 1
23 27 2
23 28 4
23 29 2
23 30 5
23 31 5
23 32 3
23 33 2
23 34 5
23 35 3
23 36 1
23 37 2
23 38 3
23 39 4
23 40 4
23 41 1
23 42 2
23 43 2
23 44 4
23 45 1
23 46 1
23 47 1
23 48 5
23 49 1
23 50 3
23 51 2
23 52 2
23 53 2
23 54 2
23 55 1
23 56 5
23 57 4
23 58 2
23 59 2
23 60 2
23 61 5
23 62 4
23 63 2
23 64 5
23 65 5
23 66 2
23 67 5
23 68 2
23 69 4
23 70 5
23 71 4
23 72 3
23 73 1
23 74 4
23 75 1
23 76 5
23 77 4
23 78 1
23 79 5
23 80 5
23 81 3
23 82 3
23 83 3
23 84 1
23 85 1
23 86 5
23 87 5
23 88 1
23 89 2
23 90 1
23 91 4
23 92 1
23 93 1
23 94 1
23 95 4
23 96 4
23 97 2
23 98 1
23 99 5
23 100 3
24 25 5
24 26 4
24 27 1
24 28 3
24 29 4
24 30 2
24 31 2
24 32 2
24 33 5
24 34 2
24 35 4
24 36 3
24 37 4
24 38 1
24 39 5
24 40 2
24 41 3
24 42 1
24 43 2
24 44 4
24 45 1
24 46 2
24 47 3
24 48 2
24 49 4
24 50 1
24 51 2
24 52 2
24 53 1
24 54 4
24 55 1
24 56 2
24 57 3
24 58 4
24 59 3
24 60 2
24 61 3
24 62 1
24 63 3
24 64 2
24 65 3
24 66 1
24 67 1
24 68 2
24 69 5
24 70 1
24 71 2
24 72 5
24 73 5
24 74 1
24 75 5
24 76 2
24 77 1
24 78 3
24 79 5
24 80 1
24 81 4
24 82 2
24 83 1
24 84 5
24 85 4
24 86 2
24 87 2
24 88 1
24 89 1
24 90 4
24 91 3
24 92 1
24 93 4
24 94 5
24 95 1
24 96 1
24 97 3
24 98 2
24 99 5
24 100 5
25 26 3
25 27 1
25 28 2
25 29 4
25 30 1
25 31 1
25 32 3
25 33 4
25 34 2
25 35 5
25 36 2
25 37 4
25 38 2
25 39 5
25 40 1
25 41 5
25 42 5
25 43 4
25 44 4
25 45 5
25 46 5
25 47 1
25 48 3
25 49 2
25 50 3
25 51 3
25 52 2
25 53 1
25 54 4
25 55 1
25 56 3
25 57 2
25 58 3
25 59 5
25 60 2
25 61 1
25 62 3
25 63 1
25 64 1
25 65 2
25 66 4
25 67 4
25 68 1
25 69 5
25 70 4
25 71 4
25 72 1
25 73 1
25 74 2
25 75 5
25 76 5
25 77 4
25 78 2
25 79 5
25 80 2
25 81 2
25 82 3
25 83 2
25 84 4
25 85 3
25 86 1
25 87 3
25 88 5
25 89 5
25 90 4
25 91 4
25 92 5
25 93 1
25 94 2
25 95 3
25 96 5
25 97 2
25 98 3
25 99 3
25 100 4
26 27 1
26 28 2
26 29 2
26 30 1
26 31 1
26 32 2
26 33 3
26 34 3
26 35 5
26 36 3
26 37 4
26 38 1
26 39 5
26 40 4
26 41 2
26 42 4
26 43 5
26 44 1
26 45 3
26 46 3
26 47 5
26 48 1
26 49 4
26 50 1
26 51 1
26 52 3
26 53 2
26 54 4
26 55 4
26 56 5
26 57 3
26 58 4
26 59 2
26 60 1
26 61 4
26 62 2
26 63 4
26 64 4
26 65 1
26 66 4
26 67 3
26 68 2
26 69 1
26 70 3
26 71 4
26 72 3
26 73 1
26 74 1
26 75 5
26 76 4
26 77 1
26 78 2
26 79 2
26 80 5
26 81 2
26 82 2
26 83 3
26 84 1
26 85 2
26 86 1
26 87 5
26 88 1
26 89 2
26 90 2
26 91 3
26 92 2
26 93 2
26 94 4
26 95 5
26 96 5
26 97 2
26 98 2
26 99 3
26 100 5
27 28 3
27 29 1
27 30 3
27 31 1
27 32 2
27 33 4
27 34 5
27 35 3
27 36 4
27 37 1
27 38 5
27 39 1
27 40 1
27 41 2
27 42 4
27 43 5
27 44 2
27 45 3
27 46 1
27 47 4
27 48 3
27 49 3
27 50 1
27 51 5
27 52 3
27 53 1
27 54 4
27 55 4
27 56 5
27 57 3
27 58 5
27 59 4
27 60 4
27 61 2
27 62 5
27 63 2
27 64 2
27 65 1
27 66 3
27 67 1
27 68 2
27 69 1
27 70 1
27 71 4
27 72 5
27 73 5
27 74 5
27 75 1
27 76 4
27 77 3
27 78 4
27 79 5
27 80 3
27 81 5
27 82 1
27 83 5
27 84 5
27 85 5
27 86 5
27 87 2
27 88 1
27 89 1
27 90 1
27 91 3
27 92 2
27 93 2
27 94 2
27 95 3
27 96 5
27 97 5
27 98 3
27 99 5
27 100 3
28 29 3
28 30 5
28 31 1
28 32 3
28 33 3
28 34 3
28 35 4
28 36 2
28 37 1
28 38 3
28 39 2
28 40 5
28 41 1
28 42 1
28 43 5
28 44 4
28 45 5
28 46 3
28 47 1
28 48 5
28 49 5
28 50 2
28 51 4
28 52 2
28 53 2
28 54 2
28 55 3
28 56 5
28 57 1
28 58 3
28 59 5
28 60 1
28 61 5
28 62 2
28 63 5
28 64 5
28 65 5
28 66 3
28 67 3
28 68 1
28 69 3
28 70 3
28 71 1
28 72 4
28 73 4
28 74 2
28 75 4
28 76 2
28 77 5
28 78 4
28 79 1
28 80 3
28 81 3
28 82 5
28 83 2
28 84 3
28 85 5
28 86 3
28 87 2
28 88 2
28 89 3
28 90 1
28 91 5
28 92 2
28 93 3
28 94 5
28 95 5
28 96 2
28 97 1
28 98 2
28 99 3
28 100 4
29 30 3
29 31 3
29 32 1
29 33 1
29 34 5
29 35 1
29 36 3
29 37 3
29 38 3
29 39 3
29 40 2
29 41 2
29 42 3
29 43 2
29 44 5
29 45 2
29 46 2
29 47 5
29 48 1
29 49 5
29 50 3
29 51 3
29 52 3
29 53 3
29 54 3
29 55 3
29 56 4
29 57 5
29 58 4
29 59 1
29 60 5
29 61 5
29 62 4
29 63 1
29 64 4
29 65 2
29 66 1
29 67 1
29 68 4
29 69 5
29 70 4
29 71 3
29 72 3
29 73 2
29 74 2
29 75 3
29 76 4
29 77 2
29 78 2
29 79 4
29 80 3
29 81 4
29 82 3
29 83 2
29 84 4
29 85 4
29 86 1
29 87 3
29 88 1
29 89 3
29 90 2
29 91 2
29 92 5
29 93 3
29 94 1
29 95 2
29 96 1
29 97 4
29 98 3
29 99 1
29 100 4
30 31 5
30 32 3
30 33 3
30 34 2
30 35 3
30 36 3
30 37 3
30 38 5
30 39 2
30 40 1
30 41 4
30 42 1
30 43 2
30 44 4
30 45 1
30 46 3
30 47 2
30 48 1
30 49 1
30 50 5
30 51 1
30 52 5
30 53 3
30 54 1
30 55 4
30 56 5
30 57 5
30 58 5
30 59 3
30 60 5
30 61 3
30 62 5
30 63 2
30 64 1
30 65 2
30 66 2
30 67 1
30 68 3
30 69 4
30 70 1
30 71 1
30 72 4
30 73 1
30 74 5
30 75 5
30 76 4
30 77 3
30 78 1
30 79 4
30 80 4
30 81 1
30 82 2
30 83 4
30 84 3
30 85 5
30 86 5
30 87 2
30 88 2
30 89 2
30 90 2
30 91 5
30 92 2
30 93 2
30 94 2
30 95 5
30 96 1
30 97 3
30 98 1
30 99 2
30 100 3
31 32 2
31 33 2
31 34 1
31 35 2
31 36 2
31 37 5
31 38 1
31 39 5
31 40 3
31 41 4
31 42 1
31 43 5
31 44 4
31 45 4
31 46 2
31 47 1
31 48 4
31 49 3
31 50 3
31 51 2
31 52 3
31 53 2
31 54 4
31 55 3
31 56 2
31 57 3
31 58 5
31 59 2
31 60 5
31 61 4
31 62 2
31 63 5
31 64 2
31 65 3
31 66 1
31 67 3
31 68 5
31 69 3
31 70 2
31 71 3
31 72 2
31 73 4
31 74 3
31 75 2
31 76 3
31 77 5
31 78 2
31 79 5
31 80 4
31 81 3
31 82 1
31 83 5
31 84 3
31 85 5
31 86 4
31 87 1
31 88 1
31 89 3
31 90 5
31 91 5
31 92 5
31 93 4
31 94 1
31 95 5
31 96 5
31 97 4
31 98 4
31 99 5
31 100 2
32 33 2
32 34 2
32 35 5
32 36 1
32 37 3
32 38 5
32 39 4
32 40 5
32 41 5
32 42 5
32 43 2
32 44 5
32 45 3
32 46 5
32 47 4
32 48 5
32 49 5
32 50 4
32 51 2
32 52 2
32 53 4
32 54 2
32 55 2
32 56 2
32 57 2
32 58 1
32 59 5
32 60 4
32 61 2
32 62 3
32 63 5
32 64 5
32 65 4
32 66 4
32 67 4
32 68 4
32 69 1
32 70 2
32 71 4
32 72 3
32 73 5
32 74 2
32 75 4
32 76 5
32 77 1
32 78 4
32 79 1
32 80 4
32 81 1
32 82 1
32 83 3
32 84 3
32 85 5
32 86 1
32 87 4
32 88 3
32 89 1
32 90 5
32 91 5
32 92 4
32 93 1
32 94 2
32 95 4
32 96 4
32 97 2
32 98 3
32 99 1
32 100 2
33 34 4
33 35 4
33 36 1
33 37 3
33 38 1
33 39 1
33 40 3
33 41 5
33 42 3
33 43 2
33 44 5
33 45 5
33 46 5
33 47 4
33 48 4
33 49 2
33 50 1
33 51 4
33 52 1
33 53 3
33 54 3
33 55 3
33 56 5
33 57 5
33 58 4
33 59 1
33 60 4
33 61 5
33 62 1
33 63 5
33 64 1
33 65 3
33 66 5
33 67 2
33 68 3
33 69 5
33 70 2
33 71 1
33 72 5
33 73 4
33 74 4
33 75 4
33 76 4
33 77 4
33 78 1
33 79 1
33 80 4
33 81 2
33 82 2
33 83 5
33 84 1
33 85 5
33 86 1
33 87 3
33 88 4
33 89 2
33 90 5
33 91 5
33 92 2
33 93 2
33 94 2
33 95 3
33 96 1
33 97 3
33 98 1
33 99 2
33 100 5
34 35 4
34 36 5
34 37 5
34 38 5
34 39 2
34 40 2
34 41 2
34 42 1
34 43 3
34 44 2
34 45 5
34 46 2
34 47 2
34 48 4
34 49 3
34 50 3
34 51 3
34 52 3
34 53 5
34 54 1
34 55 3
34 56 2
34 57 4
34 58 2
34 59 1
34 60 2
34 61 4
34 62 5
34 63 3
34 64 4
34 65 4
34 66 1
34 67 4
34 68 3
34 69 1
34 70 1
34 71 5
34 72 1
34 73 1
34 74 5
34 75 2
34 76 3
34 77 4
34 78 3
34 79 1
34 80 4
34 81 3
34 82 2
34 83 4
34 84 1
34 85 3
34 86 4
34 87 3
34 88 2
34 89 3
34 90 3
34 91 2
34 92 4
34 93 1
34 94 4
34 95 5
34 96 5
34 97 3
34 98 2
34 99 2
34 100 3
35 36 1
35 37 3
35 38 5
35 39 2
35 40 4
35 41 4
35 42 4
35 43 5
35 44 3
35 45 5
35 46 5
35 47 3
35 48 4
35 49 3
35 50 2
35 51 1
35 52 2
35 53 2
35 54 4
35 55 3
35 56 1
35 57 1
35 58 5
35 59 5
35 60 4
35 61 4
35 62 4
35 63 5
35 64 5
35 65 2
35 66 3
35 67 3
35 68 4
35 69 2
35 70 4
35 71 3
35 72 1
35 73 1
35 74 2
35 75 3
35 76 2
35 77 2
35 78 5
35 79 4
35 80 5
35 81 3
35 82 1
35 83 2
35 84 5
35 85 1
35 86 1
35 87 3
35 88 2
35 89 5
35 90 4
35 91 4
35 92 3
35 93 5
35 94 2
35 95 2
35 96 5
35 97 5
35 98 4
35 99 2
35 100 2
36 37 5
36 38 3
36 39 4
36 40 2
36 41 1
36 42 3
36 43 4
36 44 1
36 45 5
36 46 4
36 47 2
36 48 1
36 49 3
36 50 3
36 51 1
36 52 1
36 53 3
36 54 5
36 55 4
36 56 5
36 57 4
36 58 3
36 59 2
36 60 5
36 61 5
36 62 1
36 63 5
36 64 5
36 65 1
36 66 2
36 67 1
36 68 1
36 69 4
36 70 3
36 71 5
36 72 5
36 73 5
36 74 4
36 75 3
36 76 4
36 77 2
36 78 1
36 79 4
36 80 1
36 81 4
36 82 4
36 83 2
36 84 1
36 85 4
36 86 3
36 87 4
36 88 3
36 89 5
36 90 3
36 91 5
36 92 2
36 93 2
36 94 3
36 95 5
36 96 2
36 97 4
36 98 5
36 99 1
36 100 5
37 38 2
37 39 4
37 40 3
37 41 3
37 42 3
37 43 1
37 44 3
37 45 2
37 46 2
37 47 5
37 48 3
37 49 5
37 50 1
37 51 3
37 52 1
37 53 2
37 54 1
37 55 5
37 56 3
37 57 1
37 58 4
37 59 3
37 60 1
37 61 1
37 62 2
37 63 1
37 64 1
37 65 4
37 66 5
37 67 4
37 68 3
37 69 1
37 70 1
37 71 1
37 72 5
37 73 3
37 74 2
37 75 2
37 76 4
37 77 3
37 78 3
37 79 4
37 80 1
37 81 5
37 82 4
37 83 1
37 84 4
37 85 2
37 86 3
37 87 3
37 88 1
37 89 5
37 90 3
37 91 2
37 92 2
37 93 2
37 94 1
37 95 3
37 96 4
37 97 4
37 98 3
37 99 4
37 100 5
38 39 2
38 40 4
38 41 2
38 42 4
38 43 3
38 44 4
38 45 4
38 46 2
38 47 4
38 48 3
38 49 1
38 50 5
38 51 1
38 52 2
38 53 1
38 54 5
38 55 5
38 56 3
38 57 1
38 58 2
38 59 2
38 60 3
38 61 3
38 62 4
38 63 5
38 64 4
38 65 3
38 66 3
38 67 1
38 68 3
38 69 1
38 70 1
38 71 3
38 72 1
38 73 1
38 74 1
38 75 2
38 76 4
38 77 4
38 78 5
38 79 3
38 80 1
38 81 1
38 82 4
38 83 2
38 84 4
38 85 2
38 86 1
38 87 5
38 88 2
38 89 5
38 90 1
38 91 3
38 92 3
38 93 2
38 94 1
38 95 5
38 96 4
38 97 4
38 98 5
38 99 5
38 100 4
39 40 3
39 41 4
39 42 5
39 43 1
39 44 5
39 45 3
39 46 2
39 47 2
39 48 1
39 49 5
39 50 4
39 51 3
39 52 3
39 53 5
39 54 1
39 55 2
39 56 3
39 57 5
39 58 4
39 59 3
39 60 2
39 61 1
39 62 3
39 63 3
39 64 4
39 65 5
39 66 5
39 67 1
39 68 4
39 69 5
39 70 2
39 71 2
39 72 1
39 73 5
39 74 2
39 75 5
39 76 4
39 77 3
39 78 1
39 79 3
39 80 3
39 81 4
39 82 5
39 83 5
39 84 1
39 85 1
39 86 5
39 87 3
39 88 1
39 89 5
39 90 4
39 91 4
39 92 4
39 93 1
39 94 4
39 95 5
39 96 2
39 97 3
39 98 2
39 99 4
39 100 3
40 41 5
40 42 4
40 43 2
40 44 4
40 45 3
40 46 2
40 47 4
40 48 1
40 49 4
40 50 2
40 51 4
40 52 2
40 53 1
40 54 1
40 55 1
40 56 1
40 57 1
40 58 3
40 59 3
40 60 5
40 61 2
40 62 4
40 63 2
40 64 1
40 65 4
40 66 3
40 67 1
40 68 5
40 69 3
40 70 3
40 71 1
40 72 4
40 73 4
40 74 2
40 75 5
40 76 2
40 77 1
40 78 3
40 79 3
40 80 1
40 81 1
40 82 5
40 83 4
40 84 1
40 85 5
40 86 3
40 87 1
40 88 5
40 89 1
40 90 3
40 91 2
40 92 2
40 93 4
40 94 2
40 95 2
40 96 5
40 97 1
40 98 4
40 99 5
40 100 3
41 42 4
41 43 4
41 44 4
41 45 2
41 46 2
41 47 3
41 48 4
41 49 2
41 50 2
41 51 4
41 52 3
41 53 3
41 54 2
41 55 5
41 56 4
41 57 3
41 58 4
41 59 3
41 60 3
41 61 3
41 62 3
41 63 1
41 64 1
41 65 5
41 66 5
41 67 1
41 68 3
41 69 3
41 70 1
41 71 5
41 72 3
41 73 4
41 74 3
41 75 5
41 76 4
41 77 1
41 78 3
41 79 5
41 80 4
41 81 5
41 82 4
41 83 1
41 84 3
41 85 1
41 86 5
41 87 5
41 88 5
41 89 2
41 90 5
41 91 3
41 92 5
41 93 2
41 94 3
41 95 5
41 96 5
41 97 4
41 98 1
41 99 5
41 100 1
42 43 5
42 44 2
42 45 2
42 46 4
42 47 4
42 48 3
42 49 4
42 50 2
42 51 3
42 52 2
42 53 4
42 54 5
42 55 2
42 56 2
42 57 4
42 58 2
42 59 1
42 60 1
42 61 1
42 62 3
42 63 4
42 64 1
42 65 2
42 66 2
42 67 2
42 68 1
42 69 2
42 70 3
42 71 5
42 72 3
42 73 5
42 74 5
42 75 1
42 76 1
42 77 5
42 78 1
42 79 3
42 80 3
42 81 4
42 82 2
42 83 2
42 84 2
42 85 4
42 86 5
42 87 3
42 88 2
42 89 2
42 90 5
42 91 4
42 92 3
42 93 1
42 94 5
42 95 2
42 96 4
42 97 2
42 98 5
42 99 2
42 100 4
43 44 4
43 45 3
43 46 5
43 47 1
43 48 4
43 49 5
43 50 5
43 51 5
43 52 1
43 53 5
43 54 4
43 55 1
43 56 4
43 57 3
43 58 5
43 59 3
43 60 1
43 61 1
43 62 2
43 63 1
43 64 2
43 65 3
43 66 3
43 67 3
43 68 5
43 69 1
43 70 4
43 71 3
43 72 2
43 73 4
43 74 5
43 75 3
43 76 4
43 77 5
43 78 5
43 79 3
43 80 5
43 81 4
43 82 3
43 83 1
43 84 5
43 85 5
43 86 1
43 87 5
43 88 2
43 89 1
43 90 2
43 91 1
43 92 4
43 93 5
43 94 2
43 95 3
43 96 1
43 97 1
43 98 3
43 99 5
43 100 2
44 45 1
44 46 3
44 47 5
44 48 3
44 49 3
44 50 1
44 51 3
44 52 2
44 53 3
44 54 5
44 55 2
44 56 5
44 57 2
44 58 5
44 59 1
44 60 3
44 61 4
44 62 4
44 63 1
44 64 1
44 65 4
44 66 2
44 67 2
44 68 3
44 69 1
44 70 1
44 71 5
44 72 1
44 73 2
44 74 2
44 75 3
44 76 5
44 77 2
44 78 3
44 79 2
44 80 5
44 81 1
44 82 5
44 83 2
44 84 3
44 85 1
44 86 5
44 87 2
44 88 4
44 89 1
44 90 2
44 91 3
44 92 4
44 93 3
44 94 5
44 95 5
44 96 2
44 97 3
44 98 3
44 99 2
44 100 5
45 46 3
45 47 2
45 48 5
45 49 4
45 50 3
45 51 1
45 52 3
45 53 1
45 54 1
45 55 2
45 56 4
45 57 1
45 58 4
45 59 1
45 60 3
45 61 3
45 62 3
45 63 1
45 64 5
45 65 5
45 66 5
45 67 5
45 68 3
45 69 2
45 70 2
45 71 3
45 72 2
45 73 2
45 74 4
45 75 4
45 76 3
45 77 5
45 78 3
45 79 2
45 80 3
45 81 1
45 82 5
45 83 4
45 84 2
45 85 5
45 86 4
45 87 4
45 88 2
45 89 2
45 90 2
45 91 4
45 92 3
45 93 3
45 94 2
45 95 1
45 96 5
45 97 2
45 98 2
45 99 2
45 100 3
46 47 5
46 48 3
46 49 5
46 50 1
46 51 1
46 52 4
46 53 2
46 54 5
46 55 2
46 56 5
46 57 1
46 58 2
46 59 4
46 60 3
46 61 4
46 62 1
46 63 2
46 64 1
46 65 4
46 66 3
46 67 1
46 68 5
46 69 5
46 70 4
46 71 3
46 72 4
46 73 2
46 74 1
46 75 1
46 76 2
46 77 5
46 78 4
46 79 4
46 80 1
46 81 4
46 82 4
46 83 5
46 84 5
46 85 2
46 86 4
46 87 4
46 88 3
46 89 5
46 90 2
46 91 2
46 92 2
46 93 4
46 94 4
46 95 4
46 96 2
46 97 2
46 98 3
46 99 1
46 100 2
47 48 3
47 49 5
47 50 5
47 51 2
47 52 5
47 53 5
47 54 1
47 55 1
47 56 4
47 57 1
47 58 4
47 59 2
47 60 2
47 61 3
47 62 3
47 63 5
47 64 1
47 65 5
47 66 1
47 67 5
47 68 2
47 69 4
47 70 4
47 71 3
47 72 3
47 73 1
47 74 5
47 75 4
47 76 3
47 77 3
47 78 2
47 79 2
47 80 1
47 81 2
47 82 5
47 83 2
47 84 5
47 85 2
47 86 1
47 87 5
47 88 1
47 89 2
47 90 1
47 91 5
47 92 4
47 93 2
47 94 3
47 95 1
47 96 5
47 97 2
47 98 4
47 99 4
47 100 3
48 49 2
48 50 5
48 51 4
48 52 5
48 53 2
48 54 3
48 55 1
48 56 3
48 57 2
48 58 2
48 59 2
48 60 1
48 61 4
48 62 1
48 63 4
48 64 4
48 65 1
48 66 4
48 67 3
48 68 4
48 69 5
48 70 1
48 71 3
48 72 2
48 73 1
48 74 4
48 75 2
48 76 5
48 77 3
48 78 2
48 79 3
48 80 5
48 81 4
48 82 3
48 83 5
48 84 3
48 85 3
48 86 3
48 87 5
48 88 5
48 89 2
48 90 2
48 91 2
48 92 1
48 93 3
48 94 1
48 95 5
48 96 4
48 97 2
48 98 1
48 99 2
48 100 4
49 50 3
49 51 5
49 52 4
49 53 5
49 54 2
49 55 5
49 56 3
49 57 1
49 58 5
49 59 5
49 60 5
49 61 3
49 62 5
49 63 4
49 64 4
49 65 1
49 66 2
49 67 5
49 68 3
49 69 5
49 70 5
49 71 1
49 72 4
49 73 5
49 74 5
49 75 1
49 76 5
49 77 5
49 78 5
49 79 4
49 80 2
49 81 3
49 82 5
49 83 1
49 84 4
49 85 1
49 86 4
49 87 1
49 88 1
49 89 1
49 90 3
49 91 1
49 92 3
49 93 3
49 94 1
49 95 4
49 96 5
49 97 1
49 98 3
49 99 3
49 100 5
50 51 3
50 52 2
50 53 2
50 54 1
50 55 1
50 56 2
50 57 1
50 58 5
50 59 5
50 60 4
50 61 5
50 62 5
50 63 4
50 64 2
50 65 1
50 66 1
50 67 1
50 68 2
50 69 4
50 70 1
50 71 2
50 72 3
50 73 1
50 74 5
50 75 1
50 76 4
50 77 3
50 78 5
50 79 5
50 80 2
50 81 2
50 82 2
50 83 3
50 84 2
50 85 3
50 86 3
50 87 2
50 88 4
50 89 4
50 90 5
50 91 5
50 92 4
50 93 1
50 94 3
50 95 5
50 96 3
50 97 3
50 98 2
50 99 3
50 100 3
51 52 3
51 53 1
51 54 3
51 55 1
51 56 3
51 57 2
51 58 3
51 59 1
51 60 3
51 61 3
51 62 5
51 63 4
51 64 1
51 65 1
51 66 2
51 67 2
51 68 5
51 69 4
51 70 5
51 71 1
51 72 2
51 73 4
51 74 1
51 75 5
51 76 1
51 77 4
51 78 1
51 79 3
51 80 1
51 81 5
51 82 1
51 83 5
51 84 2
51 85 5
51 86 2
51 87 4
51 88 3
51 89 3
51 90 5
51 91 3
51 92 1
51 93 1
51 94 3
51 95 5
51 96 4
51 97 5
51 98 3
51 99 3
51 100 2
52 53 2
52 54 1
52 55 1
52 56 4
52 57 2
52 58 2
52 59 1
52 60 5
52 61 5
52 62 2
52 63 5
52 64 1
52 65 1
52 66 3
52 67 3
52 68 1
52 69 1
52 70 5
52 71 3
52 72 1
52 73 2
52 74 2
52 75 5
52 76 5
52 77 1
52 78 2
52 79 2
52 80 1
52 81 1
52 82 5
52 83 2
52 84 1
52 85 3
52 86 1
52 87 4
52 88 2
52 89 3
52 90 4
52 91 3
52 92 4
52 93 3
52 94 2
52 95 2
52 96 1
52 97 2
52 98 3
52 99 4
52 100 2
53 54 1
53 55 4
53 56 1
53 57 2
53 58 1
53 59 4
53 60 3
53 61 2
53 62 1
53 63 1
53 64 1
53 65 5
53 66 5
53 67 2
53 68 5
53 69 2
53 70 2
53 71 3
53 72 5
53 73 4
53 74 3
53 75 3
53 76 3
53 77 3
53 78 3
53 79 1
53 80 3
53 81 3
53 82 3
53 83 1
53 84 3
53 85 2
53 86 5
53 87 1
53 88 1
53 89 1
53 90 2
53 91 5
53 92 1
53 93 1
53 94 1
53 95 2
53 96 1
53 97 1
53 98 2
53 99 2
53 100 2
54 55 3
54 56 5
54 57 2
54 58 3
54 59 4
54 60 4
54 61 3
54 62 4
54 63 3
54 64 4
54 65 2
54 66 1
54 67 1
54 68 4
54 69 1
54 70 2
54 71 4
54 72 1
54 73 5
54 74 2
54 75 2
54 76 2
54 77 1
54 78 2
54 79 4
54 80 3
54 81 1
54 82 1
54 83 4
54 84 2
54 85 5
54 86 5
54 87 3
54 88 2
54 89 5
54 90 2
54 91 2
54 92 5
54 93 2
54 94 4
54 95 1
54 96 3
54 97 1
54 98 4
54 99 1
54 100 1
55 56 1
55 57 5
55 58 5
55 59 2
55 60 3
55 61 4
55 62 5
55 63 1
55 64 5
55 65 5
55 66 4
55 67 3
55 68 1
55 69 1
55 70 1
55 71 1
55 72 5
55 73 3
55 74 2
55 75 3
55 76 5
55 77 5
55 78 5
55 79 5
55 80 5
55 81 4
55 82 3
55 83 5
55 84 1
55 85 3
55 86 1
55 87 2
55 88 2
55 89 3
55 90 4
55 91 4
55 92 1
55 93 5
55 94 2
55 95 3
55 96 1
55 97 1
55 98 5
55 99 2
55 100 5
56 57 3
56 58 2
56 59 2
56 60 1
56 61 3
56 62 2
56 63 5
56 64 2
56 65 5
56 66 5
56 67 4
56 68 5
56 69 1
56 70 4
56 71 4
56 72 2
56 73 4
56 74 3
56 75 3
56 76 5
56 77 3
56 78 3
56 79 4
56 80 5
56 81 5
56 82 1
56 83 2
56 84 3
56 85 3
56 86 4
56 87 3
56 88 4
56 89 2
56 90 3
56 91 1
56 92 3
56 93 5
56 94 1
56 95 3
56 96 3
56 97 2
56 98 5
56 99 1
56 100 1
57 58 1
57 59 1
57 60 2
57 61 2
57 62 2
57 63 3
57 64 4
57 65 5
57 66 1
57 67 5
57 68 4
57 69 4
57 70 4
57 71 4
57 72 1
57 73 3
57 74 2
57 75 2
57 76 2
57 77 2
57 78 5
57 79 3
57 80 5
57 81 2
57 82 5
57 83 2
57 84 4
57 85 3
57 86 5
57 87 5
57 88 2
57 89 2
57 90 3
57 91 4
57 92 4
57 93 2
57 94 5
57 95 1
57 96 3
57 97 4
57 98 5
57 99 4
57 100 2
58 59 2
58 60 3
58 61 3
58 62 5
58 63 5
58 64 1
58 65 1
58 66 2
58 67 3
58 68 5
58 69 2
58 70 1
58 71 4
58 72 2
58 73 3
58 74 1
58 75 2
58 76 2
58 77 2
58 78 4
58 79 2
58 80 3
58 81 2
58 82 1
58 83 2
58 84 1
58 85 5
58 86 5
58 87 3
58 88 1
58 89 1
58 90 2
58 91 1
58 92 3
58 93 5
58 94 5
58 95 3
58 96 2
58 97 1
58 98 5
58 99 1
58 100 2
59 60 1
59 61 5
59 62 2
59 63 2
59 64 3
59 65 5
59 66 2
59 67 4
59 68 1
59 69 1
59 70 5
59 71 1
59 72 3
59 73 4
59 74 5
59 75 5
59 76 3
59 77 3
59 78 3
59 79 5
59 80 5
59 81 1
59 82 3
59 83 3
59 84 3
59 85 3
59 86 4
59 87 3
59 88 3
59 89 4
59 90 4
59 91 2
59 92 4
59 93 2
59 94 1
59 95 3
59 96 1
59 97 5
59 98 1
59 99 4
59 100 5
60 61 4
60 62 4
60 63 3
60 64 3
60 65 3
60 66 5
60 67 1
60 68 5
60 69 4
60 70 4
60 71 2
60 72 1
60 73 4
60 74 4
60 75 3
60 76 3
60 77 2
60 78 2
60 79 3
60 80 1
60 81 3
60 82 2
60 83 1
60 84 5
60 85 3
60 86 2
60 87 4
60 88 4
60 89 5
60 90 1
60 91 1
60 92 4
60 93 5
60 94 1
60 95 3
60 96 5
60 97 3
60 98 4
60 99 1
60 100 1
61 62 1
61 63 1
61 64 4
61 65 5
61 66 2
61 67 3
61 68 1
61 69 4
61 70 5
61 71 1
61 72 5
61 73 2
61 74 4
61 75 2
61 76 4
61 77 4
61 78 1
61 79 4
61 80 1
61 81 4
61 82 3
61 83 3
61 84 4
61 85 5
61 86 3
61 87 4
61 88 1
61 89 2
61 90 5
61 91 4
61 92 4
61 93 1
61 94 2
61 95 3
61 96 1
61 97 4
61 98 4
61 99 3
61 100 2
62 63 3
62 64 4
62 65 5
62 66 1
62 67 5
62 68 4
62 69 5
62 70 3
62 71 5
62 72 1
62 73 3
62 74 2
62 75 5
62 76 1
62 77 3
62 78 4
62 79 3
62 80 4
62 81 4
62 82 4
62 83 2
62 84 1
62 85 2
62 86 4
62 87 3
62 88 2
62 89 2
62 90 5
62 91 5
62 92 3
62 93 1
62 94 4
62 95 3
62 96 5
62 97 3
62 98 2
62 99 1
62 100 4
63 64 2
63 65 3
63 66 4
63 67 3
63 68 5
63 69 2
63 70 2
63 71 1
63 72 2
63 73 2
63 74 5
63 75 5
63 76 5
63 77 3
63 78 5
63 79 5
63 80 1
63 81 5
63 82 5
63 83 2
63 84 2
63 85 2
63 86 5
63 87 4
63 88 3
63 89 2
63 90 1
63 91 5
63 92 2
63 93 1
63 94 4
63 95 5
63 96 1
63 97 1
63 98 1
63 99 5
63 100 5
64 65 5
64 66 3
64 67 1
64 68 5
64 69 3
64 70 5
64 71 4
64 72 5
64 73 5
64 74 2
64 75 4
64 76 5
64 77 3
64 78 3
64 79 3
64 80 3
64 81 1
64 82 3
64 83 5
64 84 5
64 85 5
64 86 3
64 87 2
64 88 2
64 89 3
64 90 4
64 91 2
64 92 4
64 93 2
64 94 4
64 95 2
64 96 4
64 97 5
64 98 5
64 99 1
64 100 4
65 66 4
65 67 4
65 68 3
65 69 5
65 70 1
65 71 2
65 72 4
65 73 5
65 74 5
65 75 3
65 76 4
65 77 2
65 78 5
65 79 1
65 80 4
65 81 1
65 82 3
65 83 2
65 84 5
65 85 2
65 86 2
65 87 1
65 88 5
65 89 1
65 90 3
65 91 3
65 92 2
65 93 5
65 94 2
65 95 3
65 96 3
65 97 2
65 98 4
65 99 4
65 100 4
66 67 3
66 68 2
66 69 2
66 70 5
66 71 2
66 72 3
66 73 2
66 74 1
66 75 4
66 76 3
66 77 1
66 78 3
66 79 4
66 80 2
66 81 4
66 82 1
66 83 4
66 84 5
66 85 4
66 86 2
66 87 3
66 88 4
66 89 5
66 90 2
66 91 1
66 92 3
66 93 3
66 94 1
66 95 3
66 96 3
66 97 4
66 98 5
66 99 2
66 100 5
67 68 4
67 69 5
67 70 3
67 71 4
67 72 5
67 73 2
67 74 1
67 75 4
67 76 1
67 77 3
67 78 2
67 79 1
67 80 1
67 81 2
67 82 3
67 83 3
67 84 2
67 85 1
67 86 1
67 87 4
67 88 3
67 89 5
67 90 3
67 91 4
67 92 5
67 93 2
67 94 1
67 95 2
67 96 3
67 97 4
67 98 2
67 99 2
67 100 3
68 69 4
68 70 5
68 71 4
68 72 2
68 73 3
68 74 1
68 75 1
68 76 4
68 77 2
68 78 5
68 79 3
68 80 5
68 81 5
68 82 1
68 83 5
68 84 3
68 85 1
68 86 1
68 87 1
68 88 1
68 89 1
68 90 1
68 91 5
68 92 1
68 93 4
68 94 5
68 95 2
68 96 4
68 97 2
68 98 3
68 99 1
68 100 3
69 70 3
69 71 5
69 72 2
69 73 5
69 74 1
69 75 1
69 76 1
69 77 4
69 78 2
69 79 5
69 80 4
69 81 1
69 82 2
69 83 2
69 84 4
69 85 5
69 86 3
69 87 3
69 88 2
69 89 5
69 90 1
69 91 1
69 92 3
69 93 1
69 94 4
69 95 5
69 96 1
69 97 4
69 98 2
69 99 4
69 100 3
70 71 2
70 72 5
70 73 1
70 74 2
70 75 2
70 76 3
70 77 3
70 78 3
70 79 2
70 80 3
70 81 3
70 82 5
70 83 5
70 84 4
70 85 4
70 86 3
70 87 4
70 88 4
70 89 2
70 90 4
70 91 4
70 92 2
70 93 3
70 94 1
70 95 1
70 96 2
70 97 3
70 98 3
70 99 5
70 100 4
71 72 1
71 73 1
71 74 4
71 75 1
71 76 5
71 77 2
71 78 3
71 79 2
71 80 5
71 81 1
71 82 3
71 83 1
71 84 3
71 85 1
71 86 5
71 87 5
71 88 1
71 89 4
71 90 2
71 91 5
71 92 5
71 93 5
71 94 4
71 95 2
71 96 5
71 97 4
71 98 3
71 99 4
71 100 5
72 73 1
72 74 2
72 75 3
72 76 3
72 77 2
72 78 2
72 79 4
72 80 3
72 81 3
72 82 4
72 83 2
72 84 5
72 85 4
72 86 3
72 87 1
72 88 4
72 89 4
72 90 3
72 91 3
72 92 4
72 93 3
72 94 4
72 95 2
72 96 4
72 97 2
72 98 2
72 99 2
72 100 3
73 74 1
73 75 1
73 76 4
73 77 2
73 78 1
73 79 5
73 80 1
73 81 1
73 82 3
73 83 3
73 84 1
73 85 5
73 86 2
73 87 3
73 88 4
73 89 2
73 90 4
73 91 5
73 92 1
73 93 3
73 94 3
73 95 1
73 96 3
73 97 1
73 98 3
73 99 2
73 100 2
74 75 5
74 76 3
74 77 4
74 78 5
74 79 3
74 80 5
74 81 3
74 82 4
74 83 4
74 84 2
74 85 5
74 86 1
74 87 4
74 88 1
74 89 4
74 90 4
74 91 1
74 92 3
74 93 4
74 94 1
74 95 2
74 96 4
74 97 3
74 98 4
74 99 5
74 100 2
75 76 4
75 77 1
75 78 5
75 79 1
75 80 5
75 81 1
75 82 5
75 83 3
75 84 3
75 85 3
75 86 4
75 87 2
75 88 3
75 89 1
75 90 1
75 91 2
75 92 4
75 93 2
75 94 3
75 95 1
75 96 3
75 97 5
75 98 5
75 99 5
75 100 1
76 77 1
76 78 1
76 79 2
76 80 4
76 81 4
76 82 2
76 83 3
76 84 3
76 85 1
76 86 1
76 87 4
76 88 2
76 89 2
76 90 1
76 91 1
76 92 3
76 93 3
76 94 2
76 95 1
76 96 2
76 97 2
76 98 2
76 99 3
76 100 5
77 78 2
77 79 2
77 80 1
77 81 4
77 82 1
77 83 5
77 84 5
77 85 4
77 86 5
77 87 1
77 88 3
77 89 4
77 90 3
77 91 2
77 92 1
77 93 5
77 94 2
77 95 3
77 96 3
77 97 4
77 98 1
77 99 5
77 100 5
78 79 2
78 80 4
78 81 5
78 82 5
78 83 1
78 84 1
78 85 2
78 86 5
78 87 2
78 88 5
78 89 3
78 90 1
78 91 5
78 92 4
78 93 1
78 94 2
78 95 3
78 96 2
78 97 3
78 98 2
78 99 3
78 100 5
79 80 5
79 81 3
79 82 4
79 83 5
79 84 5
79 85 3
79 86 3
79 87 5
79 88 4
79 89 5
79 90 4
79 91 1
79 92 1
79 93 3
79 94 1
79 95 5
79 96 1
79 97 1
79 98 2
79 99 5
79 100 5
80 81 3
80 82 3
80 83 1
80 84 3
80 85 2
80 86 1
80 87 2
80 88 3
80 89 5
80 90 5
80 91 1
80 92 2
80 93 5
80 94 2
80 95 5
80 96 4
80 97 1
80 98 5
80 99 5
80 100 2
81 82 3
81 83 4
81 84 1
81 85 3
81 86 5
81 87 1
81 88 3
81 89 4
81 90 3
81 91 3
81 92 2
81 93 4
81 94 1
81 95 1
81 96 3
81 97 5
81 98 4
81 99 5
81 100 4
82 83 4
82 84 5
82 85 4
82 86 2
82 87 5
82 88 2
82 89 1
82 90 1
82 91 1
82 92 1
82 93 4
82 94 4
82 95 5
82 96 2
82 97 5
82 98 5
82 99 4
82 100 5
83 84 3
83 85 2
83 86 4
83 87 1
83 88 1
83 89 5
83 90 4
83 91 4
83 92 5
83 93 2
83 94 5
83 95 5
83 96 4
83 97 3
83 98 4
83 99 2
83 100 4
84 85 1
84 86 5
84 87 1
84 88 3
84 89 3
84 90 5
84 91 1
84 92 4
84 93 2
84 94 5
84 95 1
84 96 5
84 97 2
84 98 5
84 99 5
84 100 2
85 86 5
85 87 4
85 88 2
85 89 4
85 90 2
85 91 1
85 92 3
85 93 2
85 94 1
85 95 4
85 96 3
85 97 5
85 98 1
85 99 4
85 100 2
86 87 2
86 88 2
86 89 5
86 90 1
86 91 3
86 92 3
86 93 1
86 94 3
86 95 1
86 96 3
86 97 5
86 98 2
86 99 2
86 100 4
87 88 4
87 89 4
87 90 5
87 91 2
87 92 3
87 93 5
87 94 1
87 95 3
87 96 4
87 97 3
87 98 3
87 99 5
87 100 3
88 89 5
88 90 1
88 91 3
88 92 2
88 93 2
88 94 3
88 95 1
88 96 2
88 97 4
88 98 2
88 99 2
88 100 4
89 90 2
89 91 1
89 92 3
89 93 2
89 94 3
89 95 4
89 96 4
89 97 1
89 98 5
89 99 3
89 100 4
90 91 3
90 92 4
90 93 5
90 94 2
90 95 4
90 96 3
90 97 3
90 98 2
90 99 5
90 100 5
91 92 5
91 93 2
91 94 4
91 95 5
91 96 4
91 97 2
91 98 2
91 99 4
91 100 3
92 93 1
92 94 4
92 95 5
92 96 4
92 97 1
92 98 1
92 99 2
92 100 3
93 94 5
93 95 2
93 96 2
93 97 3
93 98 1
93 99 1
93 100 2
94 95 3
94 96 3
94 97 3
94 98 5
94 99 3
94 100 1
95 96 1
95 97 1
95 98 1
95 99 1
95 100 1
96 97 5
96 98 3
96 99 2
96 100 2
97 98 2
97 99 5
97 100 3
98 99 3
98 100 3
99 100 2
